NAME: tsp225
TYPE: TOUR
DIMENSION: 225
TOUR_SECTION
1
3
198
4
5
6
7
8
9
10
43
42
44
46
194
195
218
45
48
193
196
192
191
199
133
190
225
47
2
59
58
61
60
62
63
64
112
111
110
113
114
115
118
119
185
120
175
121
122
123
124
125
171
170
169
168
212
150
149
148
147
146
153
154
155
156
157
144
143
201
142
141
140
139
138
137
136
183
135
134
215
164
163
158
213
162
161
160
159
145
152
151
214
167
166
165
172
173
181
174
180
179
176
177
178
182
184
186
223
116
117
187
66
65
67
68
69
70
71
72
73
74
75
76
216
219
217
77
30
29
28
204
35
33
34
26
25
208
24
23
13
12
11
14
15
16
17
20
21
203
19
18
22
36
37
38
39
40
41
202
206
31
32
78
79
97
96
95
80
81
209
94
93
92
91
90
87
210
84
83
82
85
86
131
211
130
222
129
128
127
126
132
89
88
221
99
98
100
101
102
103
104
220
105
106
107
108
109
207
49
51
50
57
56
55
52
53
54
189
27
188
205
224
197
200
EOF
